;  time  = 600
;  terms = 22
;  score = 1.0
;  stdout= timeout

(set-logic QF_FP)
(declare-const x0 (_ FloatingPoint 8 24))
(declare-const x1 (_ FloatingPoint 8 24))
(declare-const x2 (_ FloatingPoint 8 24))
(declare-const x3 (_ FloatingPoint 8 24))
(assert (not (fp.isNaN x0)))
(assert (not (fp.isInfinite x0)))
(assert (not (fp.isZero x0)))
(assert (not (fp.isNaN x1)))
(assert (not (fp.isInfinite x1)))
(assert (not (fp.isZero x1)))
(assert (not (fp.isNaN x2)))
(assert (not (fp.isInfinite x2)))
(assert (not (fp.isZero x2)))
(assert (not (fp.isNaN x3)))
(assert (not (fp.isInfinite x3)))
(assert (not (fp.isZero x3)))
(assert (fp.isNegative (fp.fma RNE (fp.fma RNE (fp.rem x0 x1) (fp.sub RNE x2 x0) (fp.sub RNE x1 x3)) (fp.rem (fp.fma RNE x1 x2 x3) (fp.abs x1)) (fp.sqrt RNE (fp.sqrt RNE x0)))))
(check-sat)